
;this file is automatically generated: Tue Sep 05 15:01:20 IST 2017

;declarations generated

(declare-fun oclExcludes ( Int Int) Bool )
(declare-fun k66d1a3e8_d092_4c45_b904_e2c0eb362ea7 () Int )
(declare-fun oclSelect ( Int Bool) Int )
(declare-fun Cardinality ( Int) Int )
(declare-fun type_353be3ca_d99d_47ea_8f7f_cda369635f42_Person ( Int) Bool )
(declare-fun type_3c993af6_5237_4e01_83e6_e1dd72767ac2_Company ( Int) Bool )
(declare-fun container_ ( Int) Int )
(declare-fun person_age ( Int) Int )
(declare-fun k418118c3_0067_4f34_97c8_998dfaa0ceed () Int )
(declare-fun rel_23fab6bd_ae86_4f5a_ba9b_b8a26b9d8a07_WorksFor ( Int Int) Bool )
(declare-fun oclIncludes ( Int Int) Bool )
(declare-fun obj_b4f320d6_53f8_485a_8d3d_72c418de0bb2 ( Int) Int )
(declare-fun aux0 () Int )
(declare-fun ObjAt ( Int Int) Int )

;formula(s) generated
(assert (and (>= aux0 0) (<= aux0 1)))
(assert (or (or (forall ((x Int)(y Int)) (=> (and ( rel_23fab6bd_ae86_4f5a_ba9b_b8a26b9d8a07_WorksFor ( obj_b4f320d6_53f8_485a_8d3d_72c418de0bb2 x )   ( obj_b4f320d6_53f8_485a_8d3d_72c418de0bb2 y )  )  (and ( type_353be3ca_d99d_47ea_8f7f_cda369635f42_Person x )  ( type_3c993af6_5237_4e01_83e6_e1dd72767ac2_Company y ) )) (or (or (or (= (* ( Cardinality ( container_ x )  )  0) (* ( Cardinality ( container_ y )  )  0)) (= (* ( Cardinality ( container_ x )  )  1) (* ( Cardinality ( container_ y )  )  0))) (and (= (* ( Cardinality ( container_ x )  )  0) (* ( Cardinality ( container_ y )  )  k66d1a3e8_d092_4c45_b904_e2c0eb362ea7)) (>= k66d1a3e8_d092_4c45_b904_e2c0eb362ea7 0))) (and (= (* ( Cardinality ( container_ x )  )  1) (* ( Cardinality ( container_ y )  )  k418118c3_0067_4f34_97c8_998dfaa0ceed)) (>= k418118c3_0067_4f34_97c8_998dfaa0ceed 0))))) (and (= aux0 1) true)) (and (= aux0 0) false)))
(assert (forall ((x Int)(y Int)) (=> (and ( rel_23fab6bd_ae86_4f5a_ba9b_b8a26b9d8a07_WorksFor ( obj_b4f320d6_53f8_485a_8d3d_72c418de0bb2 x )   ( obj_b4f320d6_53f8_485a_8d3d_72c418de0bb2 y )  )  (and ( type_353be3ca_d99d_47ea_8f7f_cda369635f42_Person x )  ( type_3c993af6_5237_4e01_83e6_e1dd72767ac2_Company y ) )) (or (or (or (= (* ( Cardinality ( container_ x )  )  0) (* ( Cardinality ( container_ y )  )  0)) (= (* ( Cardinality ( container_ x )  )  1) (* ( Cardinality ( container_ y )  )  0))) (and (= (* ( Cardinality ( container_ x )  )  0) (* ( Cardinality ( container_ y )  )  k66d1a3e8_d092_4c45_b904_e2c0eb362ea7)) (>= k66d1a3e8_d092_4c45_b904_e2c0eb362ea7 0))) (and (= (* ( Cardinality ( container_ x )  )  1) (* ( Cardinality ( container_ y )  )  k418118c3_0067_4f34_97c8_998dfaa0ceed)) (>= k418118c3_0067_4f34_97c8_998dfaa0ceed 0))))))
(assert (exists ((o Int)) ( type_3c993af6_5237_4e01_83e6_e1dd72767ac2_Company ( obj_b4f320d6_53f8_485a_8d3d_72c418de0bb2 o )  ) ))
(assert (exists ((o Int)) ( type_353be3ca_d99d_47ea_8f7f_cda369635f42_Person ( obj_b4f320d6_53f8_485a_8d3d_72c418de0bb2 o )  ) ))
(assert (= aux0 0))

 ;end of formula 